60
2 0 1
3 0 3
3 1 1
3 2 4
4 0 3
4 1 3
5 1 1
5 3 1
5 4 2
6 3 1
7 0 3
7 1 1
7 2 2
7 5 3
8 1 1
8 2 2
8 6 4
8 7 4
9 0 4
9 2 3
9 3 3
9 4 2
9 5 2
9 6 1
10 3 4
10 4 3
10 6 3
11 0 1
11 2 3
11 3 3
11 4 1
11 8 2
11 9 1
12 3 1
12 4 2
12 5 2
12 7 2
12 10 2
13 0 1
13 4 4
13 10 3
14 1 2
14 2 3
14 3 3
14 5 4
14 7 4
14 8 3
14 10 3
14 13 3
15 0 3
15 1 2
15 2 2
15 4 2
15 5 1
15 6 1
15 7 2
15 10 4
15 11 3
15 12 2
16 1 4
16 3 4
16 8 4
16 14 1
16 15 3
17 0 1
17 8 4
17 9 3
17 13 2
17 14 1
17 15 3
17 16 1
18 0 1
18 1 1
18 3 2
18 4 3
18 5 4
18 6 2
18 8 4
18 10 3
18 11 1
18 12 3
18 14 2
18 15 4
18 16 3
18 17 3
19 5 4
19 6 3
19 7 3
19 8 4
19 9 3
19 10 3
19 11 3
19 14 2
19 17 4
20 0 1
20 1 4
20 3 4
20 4 1
20 6 3
20 7 2
20 12 4
20 13 1
20 15 3
20 19 3
21 1 2
21 2 3
21 3 1
21 5 4
21 6 4
21 9 1
21 10 3
21 12 3
21 13 4
21 14 4
21 15 3
21 16 1
21 19 4
22 4 3
22 8 1
22 9 3
22 11 4
22 13 1
22 14 2
22 15 1
22 17 3
22 19 3
22 20 4
23 5 1
23 7 2
23 9 4
23 13 3
23 16 1
23 19 4
23 22 1
24 0 4
24 1 2
24 2 2
24 3 2
24 4 1
24 5 4
24 11 1
24 12 3
24 15 2
24 16 3
24 17 1
24 18 3
24 21 4
25 1 3
25 4 3
25 8 1
25 11 2
25 15 4
25 18 2
25 19 2
25 20 1
25 21 1
25 23 4
26 2 2
26 4 4
26 5 3
26 7 1
26 8 4
26 11 1
26 12 2
26 14 2
26 17 1
26 19 3
26 21 1
26 23 3
26 25 2
27 0 3
27 3 4
27 4 1
27 5 2
27 6 3
27 7 4
27 9 1
27 11 3
27 14 4
27 16 2
27 19 4
27 22 3
27 23 1
27 26 3
28 0 3
28 1 2
28 2 1
28 3 2
28 5 2
28 6 3
28 7 3
28 9 2
28 10 4
28 17 2
28 18 4
28 19 2
28 21 3
28 22 4
28 23 1
28 27 3
29 1 1
29 2 4
29 3 3
29 4 1
29 5 3
29 8 3
29 9 1
29 12 2
29 13 2
29 15 3
29 16 1
29 18 4
29 24 3
29 25 4
29 26 4
29 27 2
29 28 3
30 2 3
30 3 4
30 6 4
30 8 4
30 9 1
30 10 4
30 11 3
30 13 1
30 15 2
30 16 1
30 17 2
30 21 2
30 23 3
30 24 3
30 25 1
30 27 1
30 28 1
31 1 4
31 3 4
31 4 3
31 5 4
31 6 2
31 9 3
31 12 2
31 13 4
31 14 4
31 19 2
31 20 4
31 21 2
31 25 3
31 26 1
31 27 2
31 28 2
31 30 3
32 1 3
32 2 1
32 4 4
32 6 2
32 7 3
32 10 1
32 11 4
32 12 3
32 14 4
32 16 2
32 17 4
32 19 2
32 24 1
32 25 1
32 28 3
32 29 3
32 30 2
32 31 1
33 4 3
33 9 4
33 10 1
33 13 3
33 14 2
33 17 3
33 18 3
33 19 1
33 20 4
33 21 2
33 22 4
33 25 2
33 28 2
33 30 1
33 31 3
34 2 2
34 5 2
34 6 4
34 11 4
34 12 1
34 13 2
34 16 3
34 18 3
34 19 4
34 21 1
34 24 1
34 25 2
34 28 2
34 30 3
34 31 3
34 32 4
34 33 4
35 0 2
35 1 3
35 3 1
35 4 4
35 6 2
35 9 4
35 13 3
35 14 1
35 16 2
35 19 4
35 20 1
35 22 1
35 26 4
35 28 3
35 29 3
35 32 1
35 33 2
36 1 1
36 3 4
36 4 3
36 7 2
36 9 2
36 10 2
36 12 4
36 14 3
36 15 1
36 17 3
36 22 3
36 25 2
36 26 2
36 28 3
36 31 2
36 33 4
37 0 1
37 2 1
37 6 4
37 7 4
37 11 2
37 13 1
37 14 4
37 17 2
37 18 1
37 23 4
37 26 3
37 29 4
37 30 4
37 32 4
37 34 1
37 35 3
38 0 1
38 5 1
38 7 4
38 8 3
38 9 3
38 11 3
38 12 1
38 14 3
38 15 1
38 16 1
38 19 3
38 21 3
38 24 1
38 26 4
38 27 3
38 29 3
38 36 1
39 1 1
39 3 2
39 9 1
39 10 3
39 12 3
39 13 1
39 14 3
39 17 2
39 18 1
39 19 2
39 21 1
39 23 4
39 24 2
39 27 4
39 28 2
39 32 1
39 35 4
39 36 2
39 38 2
40 0 1
40 3 1
40 4 1
40 5 2
40 8 2
40 11 1
40 14 2
40 18 4
40 21 3
40 22 2
40 23 2
40 25 4
40 29 3
40 30 2
40 31 2
40 33 4
40 34 2
40 38 3
41 1 3
41 2 4
41 5 3
41 6 4
41 8 4
41 12 2
41 14 3
41 21 1
41 22 2
41 24 3
41 25 2
41 26 3
41 28 2
41 32 1
41 34 4
42 5 1
42 7 2
42 11 2
42 12 2
42 14 2
42 15 2
42 16 1
42 17 1
42 18 3
42 19 4
42 20 2
42 24 4
42 26 4
42 28 1
42 29 3
42 30 3
42 31 2
42 36 1
42 37 1
42 38 1
42 40 2
43 0 2
43 3 2
43 4 4
43 7 1
43 8 2
43 10 3
43 11 2
43 16 1
43 18 2
43 20 4
43 21 4
43 22 2
43 24 1
43 26 3
43 27 3
43 28 4
43 29 1
43 30 3
43 35 2
43 36 4
43 40 4
43 41 4
44 0 3
44 3 4
44 4 4
44 6 4
44 7 2
44 8 3
44 12 3
44 13 4
44 18 1
44 20 4
44 22 1
44 23 2
44 25 4
44 27 2
44 30 2
44 33 4
44 34 4
44 35 4
44 36 1
44 37 1
44 38 3
44 41 1
45 0 3
45 3 1
45 6 3
45 7 4
45 8 1
45 9 3
45 10 3
45 13 2
45 14 1
45 16 4
45 19 3
45 20 4
45 24 3
45 25 2
45 27 2
45 28 1
45 29 1
45 30 2
45 31 1
45 34 3
45 37 2
45 38 1
45 39 2
45 41 1
45 42 2
45 43 2
45 44 4
46 1 3
46 2 4
46 3 3
46 5 4
46 6 2
46 10 2
46 11 3
46 13 3
46 14 4
46 15 4
46 17 3
46 18 2
46 19 3
46 20 4
46 21 1
46 22 4
46 24 2
46 25 2
46 27 1
46 28 2
46 29 4
46 31 3
46 32 3
46 36 3
46 42 1
47 1 2
47 2 3
47 5 3
47 10 2
47 11 4
47 12 4
47 15 2
47 17 4
47 22 4
47 24 4
47 26 1
47 27 2
47 30 2
47 32 4
47 34 1
47 36 1
47 39 4
47 41 2
47 44 4
47 45 2
48 0 1
48 1 1
48 4 1
48 6 4
48 7 3
48 8 3
48 9 2
48 11 2
48 13 3
48 17 2
48 19 1
48 20 2
48 21 4
48 22 1
48 24 4
48 26 1
48 32 4
48 33 1
48 36 1
48 39 4
48 41 2
48 42 2
48 45 4
48 46 4
49 0 2
49 1 4
49 2 3
49 5 1
49 10 1
49 11 4
49 12 3
49 15 4
49 16 2
49 17 1
49 19 2
49 20 3
49 23 2
49 25 4
49 27 3
49 28 4
49 29 4
49 31 1
49 32 4
49 34 2
49 38 2
49 42 2
49 45 1
49 46 2
49 48 3
50 1 2
50 2 4
50 3 2
50 5 1
50 7 2
50 8 4
50 11 3
50 17 1
50 20 3
50 23 2
50 24 3
50 25 4
50 31 3
50 32 1
50 33 1
50 35 3
50 36 3
50 37 1
50 42 3
51 0 4
51 1 1
51 2 1
51 9 2
51 11 3
51 15 3
51 18 3
51 19 1
51 20 4
51 21 1
51 23 2
51 24 4
51 27 1
51 29 3
51 30 4
51 32 3
51 33 2
51 35 3
51 37 2
51 40 3
51 42 3
51 43 3
51 45 3
51 48 2
51 50 2
52 1 1
52 2 2
52 3 1
52 5 1
52 6 1
52 7 3
52 10 3
52 11 4
52 12 4
52 16 2
52 17 3
52 19 1
52 20 2
52 23 4
52 24 4
52 28 2
52 29 2
52 30 3
52 31 2
52 32 3
52 34 4
52 35 2
52 38 3
52 39 4
52 40 4
52 41 3
52 43 3
52 45 4
52 47 1
52 48 2
53 0 1
53 1 4
53 3 4
53 5 1
53 9 2
53 11 2
53 12 4
53 14 1
53 17 3
53 18 1
53 19 2
53 20 1
53 24 4
53 25 2
53 29 3
53 31 3
53 33 1
53 35 3
53 40 3
53 45 4
53 47 4
53 49 4
53 50 3
53 51 1
53 52 1
54 1 4
54 2 2
54 4 4
54 7 3
54 8 1
54 9 1
54 10 4
54 12 2
54 14 1
54 15 2
54 18 2
54 19 3
54 20 3
54 22 4
54 23 3
54 26 4
54 27 3
54 35 3
54 38 3
54 40 2
54 42 4
54 46 1
54 47 1
54 50 4
54 51 3
54 52 4
55 0 1
55 6 4
55 7 2
55 8 4
55 10 4
55 11 1
55 12 3
55 13 1
55 15 1
55 18 3
55 19 4
55 20 3
55 28 1
55 29 4
55 30 2
55 31 4
55 33 1
55 37 3
55 44 3
55 45 1
55 47 4
55 50 3
55 52 1
56 0 1
56 5 3
56 6 1
56 7 3
56 8 3
56 12 1
56 14 3
56 16 3
56 18 3
56 19 1
56 20 1
56 22 1
56 23 2
56 24 4
56 27 3
56 28 1
56 29 1
56 30 1
56 31 2
56 33 2
56 34 2
56 35 1
56 36 4
56 40 3
56 41 1
56 42 1
56 43 2
56 44 4
56 46 3
56 48 3
56 52 4
56 54 4
57 0 1
57 1 3
57 2 1
57 5 1
57 7 3
57 8 1
57 9 3
57 10 1
57 11 4
57 13 3
57 14 2
57 15 3
57 16 2
57 17 4
57 18 4
57 23 3
57 24 3
57 27 1
57 28 1
57 29 3
57 30 3
57 31 2
57 40 1
57 42 2
57 46 3
57 47 2
57 48 4
57 49 1
57 51 1
57 52 2
57 54 3
57 55 4
57 56 1
58 8 4
58 14 1
58 15 3
58 18 3
58 20 2
58 22 4
58 23 2
58 24 2
58 26 4
58 27 4
58 28 3
58 29 1
58 32 4
58 37 2
58 39 2
58 40 3
58 42 3
58 46 3
58 48 3
58 50 1
58 56 4
59 0 1
59 2 3
59 4 1
59 6 2
59 7 3
59 9 3
59 12 2
59 13 4
59 14 1
59 16 3
59 18 1
59 19 4
59 20 1
59 26 2
59 30 2
59 34 4
59 35 2
59 38 1
59 39 1
59 44 3
59 45 2
59 47 3
59 48 4
59 53 1
59 55 1
59 58 1
